\ Model Routes
\ LP format - for model browsing. Use MPS format to capture full model detail.
Maximize
  - 191.7153353028244 R{0,0} + 623.2046552982704 R{0,1}
   + 623.2046552982704 R{0,2} - 249.2301939667805 R{0,3}
   + 234.7650315204939 R{0,4} + 397.2891588355392 R{0,5}
   + 568.2280287393723 R{0,6} + 438.444658217614 R{0,7}
   + 208.081007134918 R{0,8} - 256.140831891889 R{1,0}
   - 58.16416216887956 R{1,1} + 669.0062570112706 R{1,2}
   + 1118.464100737375 R{1,3} + 332.3724757400091 R{1,4}
   + 586.1533044762227 R{1,5} + 223.5535695116518 R{1,6}
   + 246.32965578047 R{1,7} + 705.3436373335674 R{1,8}
   + 439.288000325269 R{1,9} + 1198.881248318718 R{2,0}
   + 1198.881248318718 R{2,1} - 278.4443928850388 R{2,2}
   - 59.13410337035452 R{2,3} + 602.7748664658451 R{2,4}
   + 1100.505917706273 R{2,5} + 672.1937692445348 R{2,6}
   + 832.465065802254 R{2,7} + 473.9263938819845 R{2,8}
   + 465.2175846111744 R{2,9} + 594.1507212540391 R{2,10}
   + 916.1855209384714 R{2,11} + 1198.881248318718 R{2,12}
   + 774.166852893441 R{2,13} + 1198.881248318718 R{2,14}
   + 774.166852893441 R{2,15} - 260.2482995389823 R{3,0}
   + 967.7221973521264 R{3,1} + 1335.663160618656 R{3,2}
   + 1696.665877888776 R{3,3} + 1381.011324258239 R{3,4}
   + 1334.55920895763 R{3,5} + 1968.224979946276 R{3,6}
   + 1102.592359695514 R{3,7} + 1179.860940681679 R{3,8}
   + 1154.004700628469 R{3,9} + 1334.55920895763 R{3,10}
   + 1699.745240139272 R{3,11} + 761.668027342658 R{3,12}
   + 1238.140443965863 R{3,13} - 242.5208875955131 R{4,0}
   + 1055.572474837385 R{4,1} + 1576.196574514046 R{4,2}
   + 1912.589805779114 R{4,3} + 1410.713147295281 R{4,4}
   + 1936.895656918352 R{4,5} + 2039.10049209481 R{4,6}
   + 1229.795768675027 R{4,7} + 1365.326677281656 R{4,8}
   + 1053.479341541329 R{4,9} + 1462.807943868055 R{4,10}
   + 722.2412693292115 R{4,11} + 1626.694831811217 R{4,12}
   + 1387.855122497651 R{4,13} + 1402.387214725017 R{4,14}
   - 231.9775664337766 R{5,0} + 40.49903117334031 R{5,1}
   + 364.0546919427258 R{5,2} + 102.2176442913997 R{5,3}
   - 231.1436095783099 R{6,0} + 352.5135528432641 R{6,1}
   + 1376.623169502638 R{6,2} + 1941.768530245978 R{6,3}
   + 1591.139471331023 R{6,4} + 828.9097595394651 R{6,5}
   + 2017.265188656657 R{6,6} + 1910.250918921071 R{6,7}
   + 1125.128258351559 R{6,8} + 1142.16728426787 R{6,9}
   + 1852.139736369941 R{6,10} + 1301.599961390562 R{6,11}
   + 1061.213998952461 R{6,12} + 1045.690173442382 R{6,13}
   + 883.0143363388984 R{6,14}
Subject To
 R00: R{0,0} <= 1
 R01: R{0,1} <= 1
 R02: R{0,2} <= 1
 R03: R{0,3} <= 1
 R04: R{0,4} <= 1
 R05: R{0,5} <= 1
 R06: R{0,6} <= 1
 R07: R{0,7} <= 1
 R08: R{0,8} <= 1
 R09: R{1,0} <= 1
 R010: R{1,1} <= 1
 R011: R{1,2} <= 1
 R012: R{1,3} <= 1
 R013: R{1,4} <= 1
 R014: R{1,5} <= 1
 R015: R{1,6} <= 1
 R016: R{1,7} <= 1
 R017: R{1,8} <= 1
 R018: R{1,9} <= 1
 R019: R{2,0} <= 1
 R020: R{2,1} <= 1
 R021: R{2,2} <= 1
 R022: R{2,3} <= 1
 R023: R{2,4} <= 1
 R024: R{2,5} <= 1
 R025: R{2,6} <= 1
 R026: R{2,7} <= 1
 R027: R{2,8} <= 1
 R028: R{2,9} <= 1
 R029: R{2,10} <= 1
 R030: R{2,11} <= 1
 R031: R{2,12} <= 1
 R032: R{2,13} <= 1
 R033: R{2,14} <= 1
 R034: R{2,15} <= 1
 R035: R{3,0} <= 1
 R036: R{3,1} <= 1
 R037: R{3,2} <= 1
 R038: R{3,3} <= 1
 R039: R{3,4} <= 1
 R040: R{3,5} <= 1
 R041: R{3,6} <= 1
 R042: R{3,7} <= 1
 R043: R{3,8} <= 1
 R044: R{3,9} <= 1
 R045: R{3,10} <= 1
 R046: R{3,11} <= 1
 R047: R{3,12} <= 1
 R048: R{3,13} <= 1
 R049: R{4,0} <= 1
 R050: R{4,1} <= 1
 R051: R{4,2} <= 1
 R052: R{4,3} <= 1
 R053: R{4,4} <= 1
 R054: R{4,5} <= 1
 R055: R{4,6} <= 1
 R056: R{4,7} <= 1
 R057: R{4,8} <= 1
 R058: R{4,9} <= 1
 R059: R{4,10} <= 1
 R060: R{4,11} <= 1
 R061: R{4,12} <= 1
 R062: R{4,13} <= 1
 R063: R{4,14} <= 1
 R064: R{5,0} <= 1
 R065: R{5,1} <= 1
 R066: R{5,2} <= 1
 R067: R{5,3} <= 1
 R068: R{6,0} <= 1
 R069: R{6,1} <= 1
 R070: R{6,2} <= 1
 R071: R{6,3} <= 1
 R072: R{6,4} <= 1
 R073: R{6,5} <= 1
 R074: R{6,6} <= 1
 R075: R{6,7} <= 1
 R076: R{6,8} <= 1
 R077: R{6,9} <= 1
 R078: R{6,10} <= 1
 R079: R{6,11} <= 1
 R080: R{6,12} <= 1
 R081: R{6,13} <= 1
 R082: R{6,14} <= 1
 R1_0: R{0,0} + R{0,1} + R{0,2} + R{0,3} + R{0,4} + R{0,5} + R{0,6}
   + R{0,7} + R{0,8} <= 1
 R1_1: R{1,0} + R{1,1} + R{1,2} + R{1,3} + R{1,4} + R{1,5} + R{1,6}
   + R{1,7} + R{1,8} + R{1,9} <= 1
 R1_2: R{2,0} + R{2,1} + R{2,2} + R{2,3} + R{2,4} + R{2,5} + R{2,6}
   + R{2,7} + R{2,8} + R{2,9} + R{2,10} + R{2,11} + R{2,12} + R{2,13}
   + R{2,14} + R{2,15} <= 1
 R1_3: R{3,0} + R{3,1} + R{3,2} + R{3,3} + R{3,4} + R{3,5} + R{3,6}
   + R{3,7} + R{3,8} + R{3,9} + R{3,10} + R{3,11} + R{3,12} + R{3,13} <= 1
 R1_4: R{4,0} + R{4,1} + R{4,2} + R{4,3} + R{4,4} + R{4,5} + R{4,6}
   + R{4,7} + R{4,8} + R{4,9} + R{4,10} + R{4,11} + R{4,12} + R{4,13}
   + R{4,14} <= 1
 R1_5: R{5,0} + R{5,1} + R{5,2} + R{5,3} <= 1
 R1_6: R{6,0} + R{6,1} + R{6,2} + R{6,3} + R{6,4} + R{6,5} + R{6,6}
   + R{6,7} + R{6,8} + R{6,9} + R{6,10} + R{6,11} + R{6,12} + R{6,13}
   + R{6,14} <= 1
 R2_0: 7 R{2,6} + 7 R{6,11} + 7 R{6,13} + 7 R{6,14} <= 7
 R2_1: 10 R{2,11} + 10 R{3,1} + 10 R{3,2} + 10 R{3,3} + 10 R{3,4}
   + 10 R{3,5} + 10 R{3,6} + 10 R{3,7} + 10 R{3,8} + 10 R{3,9} + 10 R{3,10}
   + 10 R{3,12} <= 10
 R2_2: <= 0
 R2_3: 4 R{5,1} + 4 R{5,2} + 4 R{5,3} <= 4
 R2_4: <= 0
 R2_5: 5 R{5,1} + 5 R{5,2} + 5 R{5,3} <= 5
 R2_6: 10 R{1,7} + 10 R{6,1} + 10 R{6,2} + 10 R{6,3} + 10 R{6,4}
   + 10 R{6,5} + 10 R{6,6} + 10 R{6,7} + 10 R{6,9} + 10 R{6,10}
   + 10 R{6,11} + 10 R{6,12} <= 10
 R2_7: <= 0
 R2_8: <= 0
 R2_9: 12 R{4,1} + 12 R{4,2} + 12 R{4,3} + 12 R{4,4} + 12 R{4,5}
   + 12 R{4,6} + 12 R{4,7} + 12 R{4,8} + 12 R{4,9} + 12 R{4,11}
   + 12 R{4,12} + 12 R{4,13} <= 12
 R2_10: 8 R{6,1} + 8 R{6,2} + 8 R{6,3} + 8 R{6,4} + 8 R{6,5} + 8 R{6,6}
   + 8 R{6,8} + 8 R{6,10} + 8 R{6,12} <= 8
 R2_11: <= 0
 R2_12: <= 0
 R2_13: <= 0
 R2_14: <= 0
 R2_15: 11 R{0,0} + 11 R{0,1} + 11 R{0,2} + 11 R{4,1} + 11 R{4,2}
   + 11 R{4,4} + 11 R{4,5} + 11 R{4,13} <= 11
 R2_16: <= 0
 R2_17: <= 0
 R2_18: <= 0
 R2_19: 11 R{1,4} + 11 R{1,5} + 11 R{4,1} + 11 R{4,2} + 11 R{4,3}
   + 11 R{4,4} + 11 R{4,5} + 11 R{4,6} + 11 R{4,7} + 11 R{4,8} + 11 R{4,10}
   + 11 R{4,12} + 11 R{4,13} + 11 R{4,14} + 11 R{6,8} <= 11
 R2_20: 13 R{0,5} + 13 R{0,8} + 13 R{1,3} + 13 R{1,5} + 13 R{1,6}
   + 13 R{1,9} + 13 R{2,5} + 13 R{2,9} + 13 R{2,10} + 13 R{3,1} + 13 R{3,2}
   + 13 R{3,3} + 13 R{3,4} + 13 R{3,5} + 13 R{3,6} + 13 R{3,8} + 13 R{3,10}
   + 13 R{3,11} + 13 R{3,13} + 13 R{4,13} + 13 R{5,2} <= 13
 R2_21: <= 0
 R2_22: <= 0
 R2_23: 14 R{0,1} + 14 R{0,2} + 14 R{0,6} + 14 R{0,7} + 14 R{2,0}
   + 14 R{2,1} + 14 R{2,7} + 14 R{2,12} + 14 R{2,13} + 14 R{2,14}
   + 14 R{2,15} + 14 R{4,6} + 14 R{4,8} + 14 R{4,10} + 14 R{4,12}
   + 14 R{6,2} + 14 R{6,3} + 14 R{6,10} + 14 R{6,12} <= 14
 R2_24: 10 R{3,1} + 10 R{3,2} + 10 R{3,3} + 10 R{3,5} + 10 R{3,7}
   + 10 R{3,8} + 10 R{3,10} + 10 R{3,11} <= 10
 R2_25: 13 R{4,1} + 13 R{4,2} + 13 R{4,3} + 13 R{4,4} + 13 R{4,5}
   + 13 R{4,6} + 13 R{4,8} + 13 R{4,9} + 13 R{4,10} + 13 R{4,11}
   + 13 R{4,12} + 13 R{4,13} + 13 R{4,14} <= 13
 R2_26: 6 R{1,1} + 6 R{1,2} + 6 R{1,3} + 6 R{1,4} + 6 R{1,7} + 6 R{1,8}
   + 6 R{1,9} <= 6
 R2_27: 5 R{2,10} + 5 R{3,4} + 5 R{3,5} + 5 R{3,9} + 5 R{3,10} + 5 R{3,12}
   + 5 R{3,13} + 5 R{6,4} + 5 R{6,6} + 5 R{6,7} + 5 R{6,11} + 5 R{6,13}
   + 5 R{6,14} <= 5
 R2_28: <= 0
 R2_29: <= 0
 R2_30: <= 0
 R2_31: 6 R{6,1} + 6 R{6,2} + 6 R{6,5} + 6 R{6,8} + 6 R{6,9} + 6 R{6,10}
   + 6 R{6,12} <= 6
 R2_32: 7 R{0,4} + 7 R{0,5} <= 7
 R2_33: 12 R{6,11} + 12 R{6,13} + 12 R{6,14} <= 12
 R2_34: 5 R{3,9} + 5 R{3,11} + 5 R{3,13} <= 5
 R2_35: <= 0
 R2_36: <= 0
 R2_37: 5 R{5,1} + 5 R{5,3} <= 5
 R2_38: <= 0
 R2_39: <= 0
 R2_40: 15 R{2,3} + 15 R{2,4} + 15 R{2,5} + 15 R{2,9} + 15 R{2,11} <= 15
 R2_41: 5 R{3,2} + 5 R{3,3} + 5 R{3,4} + 5 R{3,6} + 5 R{3,7} + 5 R{3,9}
   + 5 R{3,11} + 5 R{3,13} + 5 R{4,3} + 5 R{4,5} + 5 R{4,7} + 5 R{4,9}
   + 5 R{6,5} + 5 R{6,10} <= 5
 R2_42: 4 R{2,3} + 4 R{2,4} + 4 R{2,5} + 4 R{2,9} + 4 R{2,11} <= 4
 R2_43: <= 0
 R2_44: <= 0
 R2_45: <= 0
 R2_46: 9 R{4,14} + 9 R{6,9} <= 9
 R2_47: 7 R{1,1} + 7 R{1,2} + 7 R{1,8} <= 7
 R2_48: 4 R{4,1} + 4 R{4,2} + 4 R{4,3} + 4 R{4,4} + 4 R{4,5} + 4 R{4,6}
   + 4 R{4,7} + 4 R{4,8} + 4 R{4,9} + 4 R{4,10} + 4 R{4,11} + 4 R{4,13}
   + 4 R{4,14} <= 4
 R2_49: <= 0
 R2_50: <= 0
 R2_51: <= 0
 R2_52: 10 R{4,9} + 10 R{4,11} <= 10
 R2_53: 13 R{4,1} + 13 R{4,2} + 13 R{4,6} + 13 R{4,7} + 13 R{4,8}
   + 13 R{4,10} + 13 R{4,13} + 13 R{4,14} <= 13
 R2_54: 9 R{3,1} + 9 R{3,2} + 9 R{3,3} + 9 R{3,4} + 9 R{3,6} + 9 R{3,7}
   + 9 R{3,8} + 9 R{3,9} + 9 R{3,11} + 9 R{3,12} <= 9
 R2_55: <= 0
 R2_56: 6 R{2,0} + 6 R{2,1} + 6 R{2,6} + 6 R{2,8} + 6 R{2,12} + 6 R{2,14}
   + 6 R{4,4} + 6 R{4,12} + 6 R{6,2} + 6 R{6,3} + 6 R{6,4} + 6 R{6,6}
   + 6 R{6,7} + 6 R{6,8} + 6 R{6,9} + 6 R{6,10} <= 6
 R2_57: <= 0
 R2_58: <= 0
 R2_59: 10 R{3,12} + 10 R{4,11} <= 10
 R2_60: <= 0
 R2_61: 9 R{0,7} + 9 R{2,7} + 9 R{4,10} + 9 R{4,14} <= 9
 R2_62: <= 0
 R2_63: <= 0
 R2_64: <= 0
 R2_65: 5 R{2,0} + 5 R{2,1} + 5 R{2,12} + 5 R{2,13} + 5 R{2,14} + 5 R{2,15}
   + 5 R{6,1} + 5 R{6,2} + 5 R{6,3} + 5 R{6,5} + 5 R{6,6} + 5 R{6,8}
   + 5 R{6,9} + 5 R{6,10} + 5 R{6,12} <= 5
 R2_66: 7 R{3,7} + 7 R{6,11} + 7 R{6,13} <= 7
 R2_67: 3 R{0,1} + 3 R{0,2} + 3 R{0,6} + 3 R{2,0} + 3 R{2,1} + 3 R{2,6}
   + 3 R{2,7} + 3 R{2,8} + 3 R{2,12} + 3 R{2,13} + 3 R{2,14} + 3 R{2,15}
   + 3 R{6,7} + 3 R{6,11} + 3 R{6,13} + 3 R{6,14} <= 3
 R2_68: 6 R{4,1} + 6 R{4,4} + 6 R{4,7} + 6 R{4,12} <= 6
 R2_69: 7 R{4,1} + 7 R{4,2} + 7 R{4,3} + 7 R{4,4} + 7 R{4,5} + 7 R{4,6}
   + 7 R{4,7} + 7 R{4,8} + 7 R{4,9} + 7 R{4,10} + 7 R{4,12} + 7 R{4,13}
   + 7 R{4,14} <= 7
 R2_70: 11 R{6,1} + 11 R{6,2} + 11 R{6,3} + 11 R{6,4} + 11 R{6,6}
   + 11 R{6,8} + 11 R{6,9} + 11 R{6,12} <= 11
 R2_71: 7 R{3,1} + 7 R{3,2} + 7 R{3,3} + 7 R{3,5} + 7 R{3,7} + 7 R{3,10}
   + 7 R{3,11} + 7 R{6,2} + 7 R{6,3} + 7 R{6,6} + 7 R{6,8} + 7 R{6,10}
   + 7 R{6,12} <= 7
 R2_72: <= 0
 R2_73: <= 0
 R2_74: 5 R{5,1} + 5 R{5,2} + 5 R{5,3} <= 5
 R2_75: 8 R{6,1} + 8 R{6,2} + 8 R{6,3} + 8 R{6,4} + 8 R{6,5} + 8 R{6,6}
   + 8 R{6,7} + 8 R{6,8} + 8 R{6,9} + 8 R{6,10} + 8 R{6,12} <= 8
 R2_76: 12 R{0,4} + 12 R{3,3} + 12 R{3,6} + 12 R{3,8} + 12 R{3,11} <= 12
 R2_77: 7 R{1,2} + 7 R{1,3} + 7 R{1,8} + 7 R{2,4} + 7 R{2,5} + 7 R{2,11}
   + 7 R{3,6} + 7 R{4,2} + 7 R{4,3} + 7 R{4,5} + 7 R{4,6} + 7 R{6,3}
   + 7 R{6,4} + 7 R{6,6} + 7 R{6,7} <= 7
Bounds
End
